NAME = SAfile175,
TOURSIZE = 175,
LENGTH = 21416,
165,164,126,27,1,73,101,127,13,75,108,161,136,97,44,172,32,157,82,47,37,38,113,74,7,87,154,166,68,29,133,116,45,9,15,25,139,62,83,2,137,17,110,119,171,46,89,148,49,118,72,26,5,39,120,19,93,69,31,114,48,92,170,53,64,159,105,50,103,167,123,102,80,144,81,71,91,112,104,151,84,85,134,41,21,36,132,99,140,153,70,149,24,173,11,59,128,66,77,10,122,18,33,162,174,4,109,20,43,115,138,52,96,145,63,78,34,130,143,95,54,141,152,88,135,94,158,90,111,76,86,56,30,3,142,60,175,124,125,8,155,57,14,150,147,169,28,168,23,65,100,58,160,6,42,16,146,35,117,163,67,98,156,79,61,131,40,129,55,106,51,107,12,121,22